(set-info :smt-lib-version 2.6)
(set-logic UFNIRA)
(set-info :source |
Generated by: Mirek Olšák, Mikoláš Janota, Chad E. Brown
Generated on: 2024-04-14
Application: Mathematics challenges involving function synthesis
Publications: https://arxiv.org/abs/2404.12048
From a collection by: Vít Musil
Source url: https://prase.cz/library/FunkcionalniRovniceVM/FunkcionalniRovniceVM.pdf
Problem number: Úloha 41
Original source: IMO-2002-4
|)
(set-info :license "https://creativecommons.org/licenses/by-nc/4.0/")
(set-info :category "crafted")
(set-info :status unsat)

; Header
(declare-fun f (Real) Real)

; Equations
(assert (forall ((x Real)) (= (f x) 0.0)))

; Negated constraints
(assert (not
  (forall ((x Real) (y Real) (u Real) (v Real)) (= (* (+ (f x) (f y)) (+ (f u) (f v))) (+ (f (- (* x u) (* y v))) (f (+ (* x v) (* y u))))))
))

(check-sat)
(exit)
